(declare-const havoc Int)
(declare-const k Int)
(declare-const i Int)
(declare-const |k'| Int)
(declare-const tmp___2 Int)
(declare-const term_to_project_onto0_integralized Int)
(declare-const term_to_project_onto_integralized Int)
(declare-const term_to_project_onto1_integralized Int)
(declare-const |i'| Int)
(declare-const |tmp___2'| Int)
(assert (and (<= (- k) 0) (<= (- i) 0) (= (+ i (- k)) 0)
               (or (<= (+ havoc 1) 0) (<= (+ (- havoc) 1) 0))
               (<= (+ i -1000000) 0) (= (+ |tmp___2'| (- havoc)) 0)
               (= (+ |k'| (- k) -1) 0) (= (+ |i'| (- i) -1) 0)
               (= (+ term_to_project_onto1_integralized (- (+ |i'| (- i)))) 0)
               (= (+ term_to_project_onto0_integralized (- (+ |k'| (- k)))) 0)
               (= (+ term_to_project_onto_integralized
                       (- (+ |tmp___2'| (- tmp___2)))) 0)))